10	10
3	1	2	4	6	5	7	8	9	10
2	3	5	6	7	8	1	4	10	9
3	4	7	8	2	5	6	10	9	1
7	8	2	1	3	4	10	9	5	6
3	7	8	2	5	10	9	6	1	4
2	4	7	9	10	6	8	1	5	3
5	6	3	10	9	4	7	8	2	1
4	9	10	6	3	5	1	2	8	7
5	10	9	6	4	1	2	3	7	8
6	2	1	5	8	3	4	7	10	9
